p cnf 22 12
-1 19 -2 -3 -4 21 0 
-5 6 13 18 21 0 
-6 5 13 18 21 0 
-7 22 -1 -19 0 
-8 14 -9 -10 -11 21 0 
-12 22 -1 -19 0 
-13 5 6 18 21 0 
-14 8 -15 -2 -3 21 0 
-16 21 0 
-17 -18 5 6 13 -10 21 0 
-19 1 21 0 
-15 -3 -17 -7 -20 21 0 
